%chk=DCV2T.chk
%mem=100Mb
#p int=zindos punch=mo nosymm

DCV2T molecular orbitals          

0 1
S         -1.44650        2.12185        0.00135
C         -2.43098        0.58936       -0.00048
C         -1.59065       -0.51859       -0.00146
C         -0.21222       -0.22233       -0.00095
C          0.07761        1.13376        0.00040
S          2.87651        0.79316        0.00148
C          3.86099        2.32565        0.00235
C          3.02066        3.43359        0.00231
C          1.64223        3.13733        0.00162
C          1.35240        1.78125        0.00114
C         -3.85350        0.52245       -0.00081
C         -4.79569        1.52479       -0.00008
C         -6.18500        1.18622       -0.00117
C         -4.47544        2.91565        0.00081
C          5.28350        2.39256        0.00296
C          6.22569        1.39020        0.00327
C          7.61500        1.72876        0.00432
C          5.90542       -0.00064        0.00333
N         -7.32389        0.89743       -0.00195
N         -4.21872        4.06274        0.00142
N          8.75389        2.01754        0.00510
N          5.64864       -1.14772        0.00361
H         -1.98064       -1.52966       -0.00256
H          0.55785       -0.98374       -0.00169
H          3.41065        4.44466        0.00272
H          0.87216        3.89874        0.00147
H         -4.24640       -0.49192       -0.00188
H          5.67641        3.40692        0.00337

