# coarse-grained spce water

units		lj
atom_style	atomic

read_data       spce.data

velocity	all create 2.49 87287

pair_style	table linear 1000
pair_coeff	1 1 CG_CG.pot VOTCA 0.9

timestep	0.001
fix		1 all nve
fix		2 all langevin 2.49 2.49 0.2 545454

dump		1 all atom 50 traj.dump

thermo		50
run		2500
