%chk=zindo.chk
%mem=100Mb
#p int=zindos punch=mo nosymm

DCV2T molecular orbitals          

0 1
N   2.388   8.533  11.066                            
...
