# coarse-grained spce water

units		real
atom_style	atomic

read_data       spce.data

velocity	all create 300 87287

pair_style	table linear 1000
pair_coeff	1 1 CG_CG.pot VOTCA 9.0

timestep	1.00
fix		1 all nve
fix		2 all langevin 300 300 200 545454

thermo		50
run		500

dump		1 all atom 50 traj.dump
run		4500
