* xyz  0 1
C +11.7012 +10.8655 +9.8691
C +10.4819 +11.2107 +9.5020
S +9.3809 +10.3398 +10.3200
C +10.4749 +9.5146 +11.2635
C +11.7070 +9.7701 +10.7683
H +12.5633 +11.5378 +9.5875
H +10.3051 +11.8641 +8.6589
H +10.2887 +8.6010 +11.8881
H +12.5373 +9.0688 +11.0543
* 

%pal
 nprocs 4
end

 

! OPT DFT  PBE0 RIJK cc-pVTZ

